jobs  (incl. supersource/sink ):	52
RESOURCES
- renewable                 : 2 R
- nonrenewable              : 2 N
- doubly constrained        : 0 D
************************************************************************
PRECEDENCE RELATIONS:
jobnr.    #modes  #successors   successors
1	1	17		2 3 4 5 6 7 8 9 10 11 12 18 20 21 22 24 34 
2	9	10		33 30 29 28 26 17 16 15 14 13 
3	9	7		33 30 28 25 23 19 14 
4	9	9		51 49 48 46 33 32 31 28 23 
5	9	13		50 49 47 45 44 43 42 41 35 33 32 31 29 
6	9	6		49 48 35 31 25 17 
7	9	8		48 43 40 35 33 28 26 25 
8	9	8		48 45 41 40 39 33 32 23 
9	9	11		50 44 43 42 41 40 39 38 35 32 28 
10	9	9		48 46 44 42 40 38 37 31 27 
11	9	12		47 46 45 44 43 42 41 40 38 36 35 31 
12	9	10		49 48 45 42 40 38 36 35 32 31 
13	9	9		49 47 46 44 42 41 40 35 31 
14	9	8		51 50 44 41 37 36 35 31 
15	9	8		46 45 43 42 40 39 36 32 
16	9	5		48 43 42 35 25 
17	9	8		50 47 45 43 41 40 39 36 
18	9	3		40 37 23 
19	9	6		49 44 43 40 38 32 
20	9	6		51 46 41 38 35 31 
21	9	4		50 42 35 29 
22	9	6		44 41 40 39 37 36 
23	9	5		47 44 43 42 35 
24	9	5		48 45 42 37 35 
25	9	4		46 41 38 37 
26	9	4		46 41 39 36 
27	9	4		47 41 36 35 
28	9	3		45 37 36 
29	9	3		40 38 36 
30	9	2		43 38 
31	9	1		39 
32	9	1		37 
33	9	1		38 
34	9	1		36 
35	9	1		52 
36	9	1		52 
37	9	1		52 
38	9	1		52 
39	9	1		52 
40	9	1		52 
41	9	1		52 
42	9	1		52 
43	9	1		52 
44	9	1		52 
45	9	1		52 
46	9	1		52 
47	9	1		52 
48	9	1		52 
49	9	1		52 
50	9	1		52 
51	9	1		52 
52	1	0		
************************************************************************
REQUESTS/DURATIONS
jobnr.	mode	dur	R1	R2	N1	N2	
------------------------------------------------------------------------
1	1	0	0	0	0	0	
2	1	3	1	5	18	17	
	2	7	1	4	17	16	
	3	13	1	4	17	15	
	4	17	1	3	15	13	
	5	19	1	3	14	13	
	6	23	1	3	12	11	
	7	24	1	3	11	8	
	8	25	1	2	10	8	
	9	26	1	2	9	7	
3	1	3	2	5	16	16	
	2	13	2	4	15	16	
	3	16	2	3	14	15	
	4	17	2	3	12	14	
	5	18	2	3	10	13	
	6	23	2	2	9	12	
	7	25	2	2	6	12	
	8	27	2	1	6	10	
	9	28	2	1	3	10	
4	1	1	4	2	30	20	
	2	3	4	2	27	16	
	3	4	4	2	27	15	
	4	6	3	2	26	14	
	5	11	3	2	24	11	
	6	13	3	2	22	9	
	7	14	3	2	22	8	
	8	19	2	2	20	4	
	9	27	2	2	18	4	
5	1	2	3	4	12	19	
	2	4	3	3	11	17	
	3	7	3	3	10	17	
	4	19	3	3	8	16	
	5	23	3	3	7	15	
	6	24	3	3	6	14	
	7	28	3	3	5	12	
	8	29	3	3	5	11	
	9	30	3	3	4	11	
6	1	7	5	5	8	24	
	2	8	4	5	7	20	
	3	17	3	5	7	17	
	4	18	3	5	6	16	
	5	21	2	5	5	14	
	6	23	2	5	5	12	
	7	24	2	5	5	8	
	8	25	1	5	4	7	
	9	26	1	5	4	3	
7	1	11	2	4	18	23	
	2	12	2	3	16	22	
	3	13	2	3	15	21	
	4	14	2	2	15	19	
	5	15	2	2	13	18	
	6	16	2	2	12	15	
	7	21	2	2	12	14	
	8	24	2	1	11	13	
	9	27	2	1	10	11	
8	1	4	3	4	23	27	
	2	5	3	4	23	26	
	3	13	3	4	23	25	
	4	20	3	4	23	24	
	5	22	3	4	22	23	
	6	23	3	4	22	22	
	7	24	3	4	22	21	
	8	25	3	4	22	20	
	9	27	3	4	22	18	
9	1	3	1	3	20	10	
	2	13	1	3	19	9	
	3	14	1	3	18	7	
	4	15	1	3	18	6	
	5	16	1	3	16	5	
	6	20	1	2	16	4	
	7	27	1	2	15	3	
	8	29	1	2	14	3	
	9	30	1	2	14	2	
10	1	1	3	1	12	28	
	2	2	3	1	11	26	
	3	3	3	1	11	25	
	4	14	3	1	9	22	
	5	18	3	1	8	21	
	6	20	3	1	7	20	
	7	25	3	1	7	17	
	8	29	3	1	5	17	
	9	30	3	1	4	14	
11	1	2	5	3	24	18	
	2	3	5	3	21	14	
	3	5	5	3	20	14	
	4	6	5	3	16	11	
	5	10	5	3	15	11	
	6	12	5	3	12	8	
	7	21	5	3	11	8	
	8	24	5	3	9	7	
	9	28	5	3	6	4	
12	1	1	3	2	27	17	
	2	5	3	2	24	16	
	3	6	3	2	22	16	
	4	7	3	2	17	16	
	5	8	3	1	16	15	
	6	24	3	1	14	15	
	7	25	3	1	11	15	
	8	27	3	1	7	16	
	9	28	3	1	7	15	
13	1	2	1	5	7	21	
	2	6	1	4	7	19	
	3	7	1	4	7	18	
	4	8	1	4	6	18	
	5	14	1	3	6	17	
	6	16	1	3	6	16	
	7	27	1	3	6	15	
	8	28	1	3	5	15	
	9	29	1	3	5	14	
14	1	3	5	4	24	5	
	2	6	4	4	19	5	
	3	7	4	4	18	4	
	4	9	3	4	17	3	
	5	12	3	4	15	3	
	6	21	3	3	11	2	
	7	27	3	3	8	2	
	8	28	2	3	8	2	
	9	30	2	3	5	1	
15	1	9	4	2	6	20	
	2	10	4	2	6	17	
	3	13	4	2	6	14	
	4	15	4	2	5	13	
	5	20	4	2	5	9	
	6	21	4	2	5	8	
	7	26	4	2	4	6	
	8	27	4	2	4	5	
	9	28	4	2	4	3	
16	1	7	1	2	18	27	
	2	11	1	1	17	26	
	3	15	1	1	15	21	
	4	16	1	1	12	20	
	5	18	1	1	11	18	
	6	20	1	1	8	15	
	7	25	1	1	7	13	
	8	29	1	1	4	10	
	9	30	1	1	3	7	
17	1	2	5	3	26	19	
	2	4	4	2	26	18	
	3	5	3	2	24	16	
	4	8	3	2	23	16	
	5	19	3	2	21	14	
	6	20	2	1	21	13	
	7	21	1	1	19	12	
	8	25	1	1	19	11	
	9	27	1	1	18	11	
18	1	4	3	5	18	27	
	2	7	3	4	16	23	
	3	12	3	4	14	19	
	4	14	3	3	13	18	
	5	23	2	2	11	17	
	6	24	2	2	11	12	
	7	25	2	1	9	11	
	8	27	2	1	7	9	
	9	29	2	1	7	7	
19	1	7	4	3	23	25	
	2	9	4	3	21	24	
	3	11	4	3	20	21	
	4	12	4	3	16	18	
	5	16	3	2	15	12	
	6	20	3	2	12	11	
	7	22	2	2	7	7	
	8	26	2	1	5	6	
	9	27	2	1	3	3	
20	1	4	5	2	24	25	
	2	5	5	2	21	24	
	3	6	5	2	21	22	
	4	7	5	2	19	22	
	5	8	5	2	18	21	
	6	15	5	2	17	19	
	7	16	5	2	16	18	
	8	19	5	2	15	17	
	9	25	5	2	13	17	
21	1	1	1	3	13	18	
	2	6	1	3	13	17	
	3	8	1	3	12	17	
	4	9	1	3	11	17	
	5	10	1	3	10	16	
	6	13	1	3	10	15	
	7	18	1	3	9	15	
	8	21	1	3	9	14	
	9	22	1	3	8	15	
22	1	1	1	2	18	25	
	2	8	1	2	18	24	
	3	14	1	2	18	22	
	4	18	1	2	17	19	
	5	19	1	2	16	18	
	6	22	1	1	16	17	
	7	23	1	1	16	15	
	8	28	1	1	15	12	
	9	30	1	1	15	11	
23	1	1	4	4	29	21	
	2	2	4	4	27	21	
	3	5	4	4	27	20	
	4	13	3	4	26	21	
	5	16	3	3	26	21	
	6	17	2	3	25	21	
	7	18	1	3	25	21	
	8	23	1	3	24	21	
	9	26	1	3	24	20	
24	1	4	3	4	16	6	
	2	5	3	4	15	6	
	3	16	3	4	14	5	
	4	17	3	4	13	5	
	5	18	3	4	11	5	
	6	22	3	4	11	4	
	7	23	3	4	10	4	
	8	27	3	4	8	3	
	9	28	3	4	8	2	
25	1	1	4	3	26	18	
	2	3	3	3	25	17	
	3	8	3	3	24	16	
	4	9	3	3	23	14	
	5	12	3	3	22	9	
	6	21	2	3	21	9	
	7	23	2	3	21	7	
	8	25	2	3	20	4	
	9	26	2	3	19	3	
26	1	3	1	3	18	30	
	2	6	1	3	17	27	
	3	7	1	3	15	25	
	4	9	1	2	14	23	
	5	10	1	2	11	22	
	6	14	1	2	11	18	
	7	16	1	1	9	17	
	8	18	1	1	6	14	
	9	20	1	1	6	13	
27	1	3	4	4	26	10	
	2	9	3	4	26	9	
	3	11	3	4	24	8	
	4	15	2	4	22	8	
	5	16	2	4	20	7	
	6	20	2	4	17	6	
	7	23	2	4	14	5	
	8	27	1	4	13	3	
	9	29	1	4	10	3	
28	1	2	2	3	13	23	
	2	3	2	3	10	23	
	3	5	2	3	9	23	
	4	6	2	3	8	23	
	5	7	2	2	6	23	
	6	10	1	2	6	23	
	7	14	1	2	4	23	
	8	15	1	1	2	23	
	9	17	1	1	1	23	
29	1	2	3	1	20	11	
	2	4	3	1	19	10	
	3	5	3	1	17	9	
	4	11	3	1	15	9	
	5	12	3	1	15	8	
	6	17	2	1	13	7	
	7	22	2	1	12	6	
	8	29	2	1	11	6	
	9	30	2	1	9	5	
30	1	2	4	4	22	16	
	2	9	4	4	21	14	
	3	13	4	4	21	13	
	4	14	4	3	21	12	
	5	16	4	2	21	10	
	6	21	3	2	21	9	
	7	24	3	2	21	8	
	8	25	3	1	21	6	
	9	26	3	1	21	5	
31	1	2	2	5	23	26	
	2	3	2	5	22	26	
	3	13	2	5	20	22	
	4	17	2	5	16	22	
	5	19	2	5	15	18	
	6	22	2	5	11	17	
	7	27	2	5	9	16	
	8	29	2	5	8	13	
	9	30	2	5	4	10	
32	1	1	4	4	29	15	
	2	2	3	3	28	15	
	3	5	3	3	27	14	
	4	11	3	3	24	13	
	5	15	3	2	23	11	
	6	20	3	2	21	10	
	7	21	3	1	19	10	
	8	22	3	1	19	9	
	9	27	3	1	18	8	
33	1	3	2	4	12	8	
	2	6	2	4	12	7	
	3	9	2	4	12	6	
	4	12	2	4	12	5	
	5	13	2	4	12	4	
	6	18	1	4	12	5	
	7	27	1	4	12	4	
	8	28	1	4	12	3	
	9	30	1	4	12	2	
34	1	1	2	3	26	24	
	2	4	2	2	22	24	
	3	12	2	2	22	22	
	4	16	2	2	19	22	
	5	17	1	2	13	20	
	6	21	1	2	13	19	
	7	22	1	2	10	19	
	8	25	1	2	4	18	
	9	26	1	2	1	17	
35	1	17	4	4	25	8	
	2	19	4	3	23	7	
	3	23	4	3	22	7	
	4	24	3	3	21	7	
	5	25	3	2	19	6	
	6	26	3	2	17	6	
	7	27	2	2	16	5	
	8	27	2	1	15	6	
	9	28	2	1	15	5	
36	1	4	5	5	14	15	
	2	5	4	4	12	15	
	3	12	4	4	12	14	
	4	19	3	3	11	13	
	5	23	3	3	11	12	
	6	24	2	3	11	10	
	7	26	2	3	10	9	
	8	27	1	2	10	9	
	9	30	1	2	9	8	
37	1	2	4	4	27	29	
	2	3	4	4	27	25	
	3	4	4	4	25	21	
	4	5	4	4	24	20	
	5	13	4	4	23	18	
	6	17	4	4	21	15	
	7	19	4	4	20	12	
	8	20	4	4	18	9	
	9	28	4	4	16	7	
38	1	1	4	4	27	29	
	2	2	4	4	26	28	
	3	3	4	4	24	27	
	4	5	3	4	23	26	
	5	6	3	3	21	25	
	6	12	2	3	20	24	
	7	18	2	2	20	23	
	8	27	1	2	18	23	
	9	28	1	2	17	22	
39	1	2	4	3	27	18	
	2	6	3	3	23	17	
	3	12	3	3	20	16	
	4	14	3	3	18	14	
	5	22	2	3	15	14	
	6	23	2	3	13	12	
	7	25	2	3	11	11	
	8	26	2	3	6	10	
	9	27	2	3	3	9	
40	1	1	5	2	29	19	
	2	3	4	1	29	16	
	3	6	4	1	28	15	
	4	7	4	1	28	13	
	5	11	4	1	28	11	
	6	13	3	1	27	9	
	7	19	3	1	27	7	
	8	20	3	1	26	5	
	9	21	3	1	26	4	
41	1	1	3	1	13	26	
	2	4	3	1	13	25	
	3	5	3	1	12	25	
	4	11	3	1	12	24	
	5	15	2	1	11	25	
	6	18	2	1	11	24	
	7	21	2	1	10	24	
	8	24	1	1	10	24	
	9	27	1	1	9	24	
42	1	1	4	3	23	8	
	2	2	4	3	20	7	
	3	9	4	3	19	6	
	4	16	4	3	16	5	
	5	20	4	2	13	4	
	6	21	4	2	12	3	
	7	22	4	2	10	2	
	8	23	4	2	8	2	
	9	29	4	2	5	1	
43	1	1	1	2	17	28	
	2	2	1	2	17	27	
	3	3	1	2	16	25	
	4	4	1	2	15	24	
	5	5	1	2	14	24	
	6	12	1	1	13	23	
	7	16	1	1	12	21	
	8	17	1	1	11	20	
	9	24	1	1	11	19	
44	1	1	4	4	23	23	
	2	4	4	3	22	20	
	3	16	4	3	22	19	
	4	18	4	3	21	16	
	5	20	3	3	20	16	
	6	21	3	3	18	13	
	7	24	3	3	18	12	
	8	25	2	3	16	11	
	9	30	2	3	16	8	
45	1	1	1	3	23	19	
	2	6	1	2	23	17	
	3	18	1	2	23	16	
	4	21	1	2	23	12	
	5	23	1	2	23	11	
	6	24	1	1	22	11	
	7	25	1	1	22	9	
	8	27	1	1	22	5	
	9	28	1	1	22	4	
46	1	1	2	5	13	17	
	2	3	1	4	13	16	
	3	11	1	4	12	15	
	4	12	1	4	9	15	
	5	15	1	4	9	14	
	6	16	1	4	8	14	
	7	18	1	4	6	13	
	8	29	1	4	4	13	
	9	30	1	4	3	13	
47	1	5	4	3	20	13	
	2	13	4	2	19	13	
	3	14	4	2	18	12	
	4	15	4	2	17	10	
	5	17	4	2	17	9	
	6	19	4	2	16	8	
	7	23	4	2	16	7	
	8	28	4	2	15	7	
	9	30	4	2	15	6	
48	1	6	4	1	21	30	
	2	8	4	1	20	27	
	3	10	4	1	19	25	
	4	11	3	1	18	23	
	5	15	2	1	16	22	
	6	18	2	1	15	19	
	7	20	1	1	13	17	
	8	27	1	1	13	15	
	9	29	1	1	11	14	
49	1	3	2	2	20	26	
	2	4	2	2	18	25	
	3	5	2	2	17	25	
	4	6	2	2	14	24	
	5	7	2	2	13	24	
	6	9	1	2	11	23	
	7	12	1	2	9	23	
	8	25	1	2	8	22	
	9	27	1	2	6	21	
50	1	1	4	2	14	23	
	2	2	4	2	12	23	
	3	4	4	2	12	20	
	4	5	4	2	11	18	
	5	18	4	2	9	15	
	6	19	4	1	8	13	
	7	20	4	1	8	12	
	8	21	4	1	6	9	
	9	24	4	1	5	8	
51	1	7	1	2	23	25	
	2	11	1	2	23	24	
	3	12	1	2	23	21	
	4	18	1	2	23	19	
	5	19	1	2	23	17	
	6	20	1	2	23	13	
	7	23	1	2	23	9	
	8	25	1	2	23	8	
	9	28	1	2	23	7	
52	1	0	0	0	0	0	
************************************************************************

 RESOURCE AVAILABILITIES 
	R 1	R 2	N 1	N 2
	36	44	646	611

************************************************************************
